c Sudoku solution
p cnf 729 0
146 0
212 0
241 0
286 0
339 0
348 0
352 0
438 0
477 0
481 0
536 0
574 0
588 0
592 0
615 0
495 0
693 0
689 0
676 0
711 0
749 0
764 0
797 0
827 0
856 0
726 0
996 0
316 0
466 0
861 0
971 0
919 0
934 0
955 0
545 0
387 0
947 0
873 0
982 0
785 0
778 0
884 0
899 0
732 0
835 0
753 0
842 0
968 0
818 0
923 0
422 0
529 0
459 0
551 0
644 0
662 0
443 0
567 0
658 0
414 0
513 0
621 0
637 0
117 0
233 0
131 0
391 0
324 0
257 0
154 0
294 0
172 0
375 0
183 0
363 0
279 0
198 0
125 0
228 0
169 0
265 0
